21° run output:
{
    "Function": "kroB300.tsp",
    "Problem dimension": [
        118,
        49,
        160,
        272,
        117,
        155,
        63,
        194,
        127,
        108,
        3,
        81,
        274,
        267,
        199,
        13,
        226,
        25,
        178,
        129,
        289,
        44,
        288,
        295,
        239,
        98,
        70,
        9,
        116,
        30,
        43,
        261,
        232,
        153,
        159,
        42,
        292,
        167,
        275,
        89,
        213,
        60,
        39,
        281,
        189,
        224,
        197,
        45,
        67,
        79,
        277,
        256,
        107,
        278,
        231,
        4,
        171,
        57,
        198,
        144,
        142,
        87,
        93,
        282,
        219,
        227,
        176,
        212,
        120,
        235,
        21,
        50,
        12,
        77,
        22,
        170,
        133,
        251,
        68,
        80,
        64,
        188,
        193,
        69,
        204,
        152,
        248,
        11,
        106,
        148,
        244,
        177,
        111,
        174,
        259,
        2,
        72,
        84,
        97,
        123,
        114,
        74,
        263,
        255,
        273,
        100,
        180,
        1,
        32,
        14,
        115,
        168,
        131,
        85,
        10,
        121,
        164,
        26,
        75,
        200,
        37,
        38,
        27,
        99,
        55,
        78,
        112,
        82,
        173,
        94,
        35,
        264,
        203,
        217,
        299,
        7,
        92,
        0,
        195,
        262,
        124,
        109,
        95,
        215,
        270,
        47,
        265,
        294,
        145,
        141,
        90,
        122,
        20,
        71,
        190,
        279,
        83,
        207,
        5,
        181,
        210,
        46,
        31,
        293,
        218,
        52,
        240,
        187,
        126,
        229,
        73,
        88,
        247,
        41,
        206,
        146,
        208,
        241,
        253,
        214,
        287,
        135,
        65,
        291,
        205,
        18,
        23,
        162,
        34,
        58,
        220,
        243,
        151,
        221,
        6,
        163,
        182,
        284,
        172,
        136,
        103,
        132,
        156,
        138,
        150,
        266,
        161,
        228,
        53,
        254,
        285,
        216,
        137,
        238,
        105,
        246,
        33,
        169,
        166,
        56,
        76,
        104,
        276,
        140,
        209,
        183,
        260,
        62,
        297,
        250,
        48,
        271,
        165,
        36,
        51,
        113,
        280,
        186,
        15,
        185,
        17,
        201,
        143,
        86,
        249,
        8,
        28,
        283,
        225,
        128,
        130,
        175,
        102,
        154,
        202,
        61,
        110,
        233,
        184,
        119,
        139,
        286,
        158,
        269,
        29,
        290,
        192,
        258,
        242,
        149,
        257,
        237,
        101,
        54,
        191,
        211,
        196,
        66,
        245,
        59,
        252,
        179,
        24,
        223,
        222,
        125,
        236,
        147,
        16,
        296,
        234,
        268,
        298,
        19,
        96,
        157,
        91,
        40,
        134,
        230
    ],
    "Global Optimum": 0,
    "Algorithm": "Genetic algorithm",
    "Parameters": {
        "population": 30,
        "offspring": 30,
        "mutation probability": 0.0033333333333333335,
        "crossover probability": 0.9
    },
    "Fitness": 289723,
    "Solution": [
        118,
        49,
        160,
        272,
        117,
        155,
        63,
        194,
        127,
        108,
        3,
        81,
        274,
        267,
        199,
        13,
        226,
        25,
        178,
        129,
        289,
        44,
        288,
        295,
        239,
        98,
        70,
        9,
        116,
        30,
        43,
        261,
        232,
        153,
        159,
        42,
        292,
        167,
        275,
        89,
        213,
        60,
        39,
        281,
        189,
        224,
        197,
        45,
        67,
        79,
        277,
        256,
        107,
        278,
        231,
        4,
        171,
        57,
        198,
        144,
        142,
        87,
        93,
        282,
        219,
        227,
        176,
        212,
        120,
        235,
        21,
        50,
        12,
        77,
        22,
        170,
        133,
        251,
        68,
        80,
        64,
        188,
        193,
        69,
        204,
        152,
        248,
        11,
        106,
        148,
        244,
        177,
        111,
        174,
        259,
        2,
        72,
        84,
        97,
        123,
        114,
        74,
        263,
        255,
        273,
        100,
        180,
        1,
        32,
        14,
        115,
        168,
        131,
        85,
        10,
        121,
        164,
        26,
        75,
        200,
        37,
        38,
        27,
        99,
        55,
        78,
        112,
        82,
        173,
        94,
        35,
        264,
        203,
        217,
        299,
        7,
        92,
        0,
        195,
        262,
        124,
        109,
        95,
        215,
        270,
        47,
        265,
        294,
        145,
        141,
        90,
        122,
        20,
        71,
        190,
        279,
        83,
        207,
        5,
        181,
        210,
        46,
        31,
        293,
        218,
        52,
        240,
        187,
        126,
        229,
        73,
        88,
        247,
        41,
        206,
        146,
        208,
        241,
        253,
        214,
        287,
        135,
        65,
        291,
        205,
        18,
        23,
        162,
        34,
        58,
        220,
        243,
        151,
        221,
        6,
        163,
        182,
        284,
        172,
        136,
        103,
        132,
        156,
        138,
        150,
        266,
        161,
        228,
        53,
        254,
        285,
        216,
        137,
        238,
        105,
        246,
        33,
        169,
        166,
        56,
        76,
        104,
        276,
        140,
        209,
        183,
        260,
        62,
        297,
        250,
        48,
        271,
        165,
        36,
        51,
        113,
        280,
        186,
        15,
        185,
        17,
        201,
        143,
        86,
        249,
        8,
        28,
        283,
        225,
        128,
        130,
        175,
        102,
        154,
        202,
        61,
        110,
        233,
        184,
        119,
        139,
        286,
        158,
        269,
        29,
        290,
        192,
        258,
        242,
        149,
        257,
        237,
        101,
        54,
        191,
        211,
        196,
        66,
        245,
        59,
        252,
        179,
        24,
        223,
        222,
        125,
        236,
        147,
        16,
        296,
        234,
        268,
        298,
        19,
        96,
        157,
        91,
        40,
        134,
        230
    ],
    "Nb of functions evaluations": 200010,
    "Computational time in seconds": 333.29911398887634,
    "Stopping criterion in evaluations": 200000
}